150 2811
1 9 -1
1 17 1
1 27 1
1 30 1
1 40 -1
1 42 -1
1 50 -1
1 52 -1
1 60 1
1 77 1
1 79 -1
1 80 -1
1 82 -1
1 83 1
1 86 -1
1 93 1
1 108 1
1 113 1
1 115 1
1 117 -1
1 119 -1
1 123 1
1 126 1
1 127 -1
1 129 1
1 132 -1
1 137 1
1 139 1
1 142 -1
1 149 1
1 150 -1
2 7 -1
2 10 -1
2 11 1
2 22 1
2 30 1
2 31 1
2 44 -1
2 50 1
2 52 1
2 56 1
2 57 1
2 60 1
2 61 1
2 62 1
2 64 1
2 69 1
2 72 -1
2 75 -1
2 79 -1
2 84 1
2 88 1
2 98 1
2 109 1
2 112 -1
2 113 -1
2 119 -1
2 121 1
2 122 -1
2 125 1
2 134 1
2 136 -1
2 137 -1
2 140 -1
2 143 -1
2 147 -1
2 148 -1
3 9 1
3 21 -1
3 22 1
3 23 -1
3 34 1
3 39 1
3 43 1
3 45 -1
3 51 1
3 59 1
3 63 1
3 67 -1
3 68 -1
3 73 -1
3 76 -1
3 81 -1
3 85 1
3 92 -1
3 95 -1
3 96 -1
3 103 1
3 104 -1
3 106 -1
3 107 1
3 110 -1
3 116 -1
3 117 -1
3 128 -1
3 129 -1
3 135 -1
3 139 1
3 140 1
3 144 -1
3 148 1
4 11 1
4 12 -1
4 18 -1
4 23 -1
4 25 1
4 39 -1
4 46 1
4 47 1
4 48 -1
4 56 -1
4 60 1
4 75 -1
4 82 -1
4 87 1
4 92 -1
4 94 -1
4 97 -1
4 98 1
4 120 -1
4 122 -1
4 128 -1
4 132 1
4 142 -1
4 144 -1
4 146 -1
4 148 1
4 149 -1
5 7 1
5 8 -1
5 9 -1
5 14 -1
5 22 -1
5 31 1
5 32 -1
5 39 1
5 43 -1
5 49 1
5 56 -1
5 59 1
5 65 -1
5 66 -1
5 68 -1
5 73 1
5 89 1
5 91 1
5 94 1
5 95 1
5 100 -1
5 102 -1
5 105 -1
5 107 -1
5 109 1
5 112 -1
5 114 1
5 117 -1
5 120 -1
5 123 1
5 134 -1
5 135 1
5 142 -1
5 147 1
5 148 1
6 8 -1
6 9 -1
6 10 -1
6 14 1
6 16 1
6 19 -1
6 22 -1
6 30 1
6 33 1
6 35 1
6 37 1
6 38 1
6 41 1
6 46 1
6 48 1
6 50 -1
6 53 -1
6 55 1
6 56 1
6 63 1
6 64 1
6 68 1
6 80 1
6 81 1
6 85 1
6 86 1
6 89 1
6 96 -1
6 101 -1
6 104 1
6 105 1
6 106 -1
6 110 -1
6 111 1
6 112 1
6 119 -1
6 120 1
6 121 -1
6 126 1
6 127 1
6 129 -1
6 130 -1
6 131 1
6 133 1
6 135 -1
6 140 -1
6 143 1
6 144 -1
6 146 1
6 147 1
6 148 1
6 150 -1
7 23 -1
7 33 1
7 35 1
7 39 1
7 41 -1
7 43 1
7 50 -1
7 51 1
7 52 -1
7 58 1
7 63 -1
7 64 -1
7 70 1
7 75 -1
7 82 1
7 85 -1
7 90 -1
7 98 1
7 99 1
7 101 -1
7 107 -1
7 111 -1
7 112 1
7 118 -1
7 120 1
7 123 1
7 124 1
7 125 -1
7 127 1
7 129 1
7 132 -1
7 133 1
7 135 -1
7 136 1
7 142 1
7 149 1
8 10 1
8 16 1
8 24 1
8 28 -1
8 32 -1
8 34 -1
8 35 1
8 46 1
8 56 -1
8 57 1
8 63 -1
8 64 1
8 67 -1
8 75 1
8 79 1
8 93 1
8 95 1
8 102 -1
8 106 -1
8 110 1
8 113 1
8 116 1
8 120 -1
8 121 -1
8 122 -1
8 123 1
8 125 -1
8 126 -1
8 129 -1
8 135 -1
8 137 1
8 141 -1
8 145 -1
8 146 -1
9 10 1
9 16 -1
9 25 -1
9 27 -1
9 28 -1
9 38 -1
9 56 1
9 59 -1
9 64 1
9 70 1
9 71 -1
9 76 -1
9 81 1
9 82 1
9 93 -1
9 99 -1
9 100 -1
9 102 -1
9 104 -1
9 105 -1
9 106 1
9 109 1
9 113 1
9 117 1
9 121 -1
9 126 1
9 142 -1
9 144 -1
10 12 -1
10 16 1
10 22 -1
10 25 -1
10 27 1
10 36 1
10 38 -1
10 48 -1
10 49 -1
10 52 1
10 57 1
10 61 -1
10 62 -1
10 63 1
10 70 1
10 77 -1
10 78 -1
10 82 -1
10 91 -1
10 94 -1
10 95 -1
10 96 1
10 98 -1
10 99 -1
10 100 1
10 103 1
10 115 1
10 121 1
10 127 1
10 129 1
10 130 1
10 137 1
10 138 -1
10 139 1
10 143 1
10 145 1
10 149 1
11 13 -1
11 19 1
11 29 1
11 30 1
11 35 -1
11 36 -1
11 37 1
11 39 1
11 59 1
11 64 -1
11 67 -1
11 80 1
11 84 -1
11 85 1
11 92 -1
11 98 -1
11 100 1
11 103 -1
11 110 -1
11 115 -1
11 117 1
11 120 -1
11 131 -1
11 137 -1
11 140 1
12 20 -1
12 22 1
12 23 -1
12 28 -1
12 32 1
12 34 -1
12 38 1
12 44 1
12 48 1
12 60 -1
12 69 1
12 72 -1
12 75 -1
12 76 -1
12 77 1
12 79 1
12 82 1
12 83 1
12 84 1
12 85 -1
12 87 1
12 92 -1
12 94 -1
12 96 1
12 97 -1
12 104 1
12 109 1
12 116 -1
12 117 -1
12 118 -1
12 121 -1
12 128 -1
12 130 1
12 136 -1
12 139 -1
12 142 -1
12 143 -1
12 145 1
13 14 -1
13 15 1
13 21 1
13 22 -1
13 25 -1
13 28 1
13 33 -1
13 38 -1
13 41 -1
13 44 -1
13 48 -1
13 49 1
13 50 1
13 70 1
13 76 1
13 83 1
13 87 1
13 88 -1
13 89 -1
13 104 -1
13 106 1
13 107 -1
13 114 1
13 125 1
13 126 -1
13 129 -1
13 130 1
13 131 -1
13 142 -1
13 145 -1
13 149 1
14 19 1
14 26 1
14 27 1
14 28 -1
14 30 1
14 33 -1
14 36 1
14 39 -1
14 43 1
14 49 -1
14 52 1
14 55 -1
14 56 -1
14 59 1
14 61 1
14 67 -1
14 69 1
14 70 1
14 72 -1
14 75 -1
14 78 -1
14 81 -1
14 82 1
14 83 -1
14 87 -1
14 91 -1
14 92 -1
14 98 1
14 99 1
14 100 1
14 102 1
14 104 1
14 113 1
14 115 1
14 116 1
14 117 -1
14 120 -1
14 124 1
14 131 1
14 133 1
14 140 -1
14 141 1
14 149 -1
15 18 1
15 22 -1
15 33 -1
15 34 -1
15 36 -1
15 46 1
15 49 1
15 50 -1
15 51 1
15 54 -1
15 56 1
15 57 -1
15 60 -1
15 61 -1
15 62 -1
15 65 1
15 66 -1
15 70 -1
15 74 1
15 81 1
15 83 -1
15 85 1
15 88 -1
15 94 -1
15 96 -1
15 98 -1
15 102 -1
15 106 -1
15 112 1
15 113 1
15 115 1
15 121 -1
15 122 1
15 123 -1
15 125 1
15 126 -1
15 128 -1
15 131 1
15 137 1
15 141 1
15 150 -1
16 21 1
16 22 1
16 23 -1
16 29 1
16 31 1
16 33 -1
16 39 -1
16 45 1
16 50 -1
16 56 1
16 66 -1
16 68 1
16 75 -1
16 76 1
16 79 -1
16 80 1
16 87 -1
16 93 -1
16 100 1
16 104 -1
16 108 1
16 112 1
16 115 1
16 120 -1
16 122 1
16 130 1
16 136 -1
16 138 -1
16 142 -1
16 143 1
17 19 -1
17 23 -1
17 26 1
17 29 -1
17 34 -1
17 35 -1
17 39 1
17 44 -1
17 45 -1
17 48 -1
17 49 1
17 54 1
17 59 1
17 60 1
17 62 -1
17 64 -1
17 69 -1
17 70 -1
17 73 1
17 77 -1
17 88 -1
17 95 1
17 101 1
17 105 1
17 106 1
17 111 1
17 112 -1
17 120 -1
17 125 1
17 126 -1
17 129 1
17 136 -1
17 139 -1
17 143 1
17 146 1
17 148 -1
18 22 -1
18 23 -1
18 24 -1
18 26 -1
18 34 -1
18 35 1
18 44 -1
18 49 1
18 54 1
18 55 -1
18 64 1
18 66 1
18 68 1
18 77 -1
18 78 1
18 81 1
18 84 1
18 86 -1
18 89 1
18 91 -1
18 95 -1
18 104 -1
18 108 1
18 109 1
18 116 1
18 117 1
18 130 1
18 132 1
18 141 1
18 144 1
18 145 -1
18 148 -1
18 149 -1
19 22 -1
19 23 -1
19 24 -1
19 27 1
19 36 -1
19 38 -1
19 42 -1
19 48 1
19 50 1
19 52 1
19 56 1
19 60 1
19 65 -1
19 68 1
19 71 1
19 85 1
19 90 -1
19 91 1
19 94 -1
19 97 1
19 99 -1
19 102 -1
19 105 -1
19 107 1
19 115 -1
19 117 -1
19 122 1
19 123 -1
19 124 -1
19 132 -1
19 133 -1
19 137 -1
19 140 1
20 24 1
20 25 1
20 26 1
20 40 1
20 45 -1
20 54 1
20 56 -1
20 57 -1
20 66 -1
20 68 -1
20 74 -1
20 77 -1
20 83 -1
20 86 -1
20 87 -1
20 89 1
20 99 1
20 102 -1
20 111 -1
20 113 -1
20 114 -1
20 118 1
20 122 1
20 125 -1
20 133 -1
20 139 1
20 140 -1
20 146 -1
21 22 -1
21 24 -1
21 25 -1
21 27 1
21 32 1
21 35 1
21 36 -1
21 40 1
21 46 -1
21 54 -1
21 55 1
21 56 -1
21 62 -1
21 67 -1
21 68 -1
21 76 -1
21 78 1
21 83 -1
21 88 -1
21 90 1
21 97 -1
21 100 1
21 102 1
21 105 1
21 106 -1
21 107 1
21 111 -1
21 112 1
21 116 1
21 117 1
21 119 -1
21 127 -1
21 133 1
21 138 1
21 140 -1
21 144 -1
21 150 1
22 28 -1
22 34 1
22 38 1
22 43 1
22 46 -1
22 47 -1
22 48 -1
22 59 1
22 62 -1
22 63 1
22 73 -1
22 76 -1
22 90 -1
22 92 1
22 96 -1
22 99 1
22 103 1
22 112 1
22 117 -1
22 119 1
22 123 1
22 127 -1
22 131 1
22 140 -1
22 142 1
22 144 1
23 27 -1
23 32 -1
23 36 1
23 40 1
23 44 -1
23 45 1
23 49 -1
23 53 1
23 54 1
23 58 1
23 60 -1
23 64 -1
23 67 -1
23 73 1
23 77 1
23 79 -1
23 80 -1
23 83 -1
23 88 1
23 89 -1
23 91 1
23 95 1
23 97 1
23 100 1
23 101 1
23 110 -1
23 112 -1
23 113 1
23 114 1
23 115 -1
23 118 -1
23 123 -1
23 124 -1
23 132 1
23 135 -1
23 137 -1
23 139 -1
23 142 1
23 144 1
23 145 -1
23 150 -1
24 25 1
24 31 -1
24 41 1
24 49 1
24 51 1
24 53 -1
24 61 -1
24 62 1
24 68 1
24 75 1
24 78 1
24 79 -1
24 86 -1
24 89 1
24 104 -1
24 109 -1
24 110 1
24 111 -1
24 113 -1
24 114 -1
24 122 1
24 132 1
24 133 -1
24 144 1
24 146 -1
24 147 1
24 149 -1
25 34 -1
25 39 1
25 47 -1
25 51 1
25 55 -1
25 57 1
25 61 1
25 63 -1
25 64 -1
25 65 1
25 73 1
25 76 1
25 79 1
25 81 -1
25 82 1
25 89 1
25 91 1
25 100 1
25 101 -1
25 102 -1
25 103 1
25 106 1
25 108 1
25 115 1
25 117 1
25 119 -1
25 120 1
25 122 1
25 127 -1
25 130 1
25 138 1
25 142 -1
25 147 1
25 150 1
26 29 1
26 34 -1
26 36 -1
26 43 1
26 44 1
26 51 -1
26 60 1
26 63 -1
26 67 -1
26 69 1
26 71 1
26 72 1
26 76 1
26 80 -1
26 82 -1
26 83 1
26 84 -1
26 90 -1
26 94 -1
26 95 1
26 97 1
26 98 -1
26 100 1
26 104 1
26 105 1
26 118 -1
26 122 1
26 126 1
26 147 1
26 150 -1
27 29 -1
27 30 1
27 31 -1
27 33 -1
27 38 1
27 41 1
27 49 -1
27 51 -1
27 52 1
27 54 1
27 56 -1
27 57 -1
27 59 1
27 61 1
27 63 1
27 64 -1
27 70 -1
27 71 -1
27 73 -1
27 92 -1
27 94 1
27 105 1
27 106 1
27 107 1
27 116 1
27 119 -1
27 120 1
27 122 -1
27 125 1
27 126 -1
27 138 1
27 147 -1
27 150 1
28 37 -1
28 46 1
28 50 1
28 55 -1
28 56 -1
28 65 -1
28 67 1
28 69 -1
28 70 1
28 73 -1
28 86 1
28 88 1
28 89 -1
28 91 -1
28 98 -1
28 99 -1
28 100 -1
28 103 -1
28 110 -1
28 118 1
28 119 1
28 123 1
28 135 -1
28 142 1
28 143 -1
28 147 1
28 149 -1
29 41 1
29 45 1
29 46 -1
29 54 1
29 55 1
29 59 -1
29 65 -1
29 68 -1
29 82 1
29 90 -1
29 98 -1
29 105 -1
29 106 -1
29 109 1
29 116 -1
29 119 -1
29 125 -1
29 132 -1
29 134 -1
29 147 1
29 150 -1
30 33 1
30 35 1
30 40 -1
30 41 -1
30 43 -1
30 44 -1
30 47 1
30 55 -1
30 65 -1
30 83 -1
30 86 -1
30 94 1
30 97 -1
30 99 1
30 108 1
30 111 -1
30 114 -1
30 118 1
30 120 -1
30 121 -1
30 122 -1
30 126 1
30 129 1
30 130 1
30 133 1
30 135 1
30 138 1
30 141 1
30 145 -1
30 149 -1
31 32 -1
31 39 1
31 53 1
31 59 1
31 66 -1
31 71 1
31 74 1
31 78 -1
31 79 -1
31 85 -1
31 93 -1
31 98 -1
31 102 -1
31 103 -1
31 104 -1
31 105 -1
31 107 -1
31 111 1
31 115 -1
31 120 1
31 126 -1
31 128 -1
31 133 1
31 135 -1
31 142 -1
32 34 -1
32 37 1
32 42 -1
32 44 1
32 50 1
32 63 1
32 66 -1
32 70 -1
32 72 -1
32 75 1
32 76 -1
32 85 1
32 92 1
32 93 1
32 96 1
32 100 1
32 101 -1
32 103 1
32 107 1
32 110 -1
32 111 -1
32 112 -1
32 117 -1
32 121 -1
32 128 1
32 133 1
32 136 -1
32 141 -1
32 142 1
32 144 -1
32 145 1
32 146 1
32 150 -1
33 37 -1
33 43 -1
33 45 1
33 47 1
33 51 1
33 55 1
33 56 1
33 58 -1
33 63 1
33 69 -1
33 75 -1
33 78 -1
33 81 1
33 96 1
33 98 1
33 102 -1
33 107 1
33 109 1
33 110 -1
33 114 -1
33 118 -1
33 124 1
33 127 1
33 129 -1
33 132 1
33 134 -1
33 136 -1
33 139 1
33 140 1
33 141 -1
33 144 1
33 145 1
34 39 -1
34 42 -1
34 52 1
34 53 -1
34 78 -1
34 79 1
34 82 1
34 85 1
34 91 1
34 100 -1
34 102 1
34 104 -1
34 111 1
34 116 -1
34 120 1
34 121 -1
34 125 1
34 128 1
34 144 1
34 146 -1
34 150 -1
35 39 1
35 43 -1
35 45 -1
35 51 -1
35 61 -1
35 69 -1
35 70 1
35 75 1
35 85 -1
35 88 1
35 89 1
35 103 1
35 110 1
35 111 -1
35 119 1
35 120 -1
35 121 1
35 122 -1
35 123 1
35 127 1
35 130 1
35 132 -1
35 140 1
35 142 -1
35 143 -1
35 147 1
36 42 1
36 44 -1
36 45 -1
36 48 1
36 50 1
36 54 -1
36 56 -1
36 57 1
36 60 -1
36 71 -1
36 74 -1
36 76 1
36 83 -1
36 84 -1
36 87 -1
36 93 1
36 107 -1
36 112 1
36 116 -1
36 118 1
36 121 1
36 126 1
36 127 -1
36 129 -1
36 131 1
36 136 1
36 138 1
36 146 -1
36 148 1
37 38 -1
37 39 1
37 49 -1
37 51 1
37 56 -1
37 60 -1
37 62 1
37 69 1
37 71 -1
37 73 1
37 78 1
37 85 -1
37 91 1
37 95 -1
37 97 -1
37 98 1
37 102 -1
37 106 -1
37 109 -1
37 113 1
37 120 -1
37 122 -1
37 126 -1
37 127 -1
37 129 1
37 130 1
37 137 1
37 141 1
37 147 1
37 150 -1
38 40 -1
38 42 -1
38 47 -1
38 53 -1
38 60 1
38 62 -1
38 70 1
38 76 -1
38 78 -1
38 79 -1
38 81 1
38 82 -1
38 84 1
38 92 -1
38 93 -1
38 96 1
38 97 -1
38 104 -1
38 106 -1
38 112 1
38 117 1
38 120 -1
38 121 1
38 123 1
38 124 -1
38 125 1
38 126 -1
38 135 -1
38 137 1
39 40 -1
39 43 1
39 45 -1
39 51 -1
39 54 1
39 58 1
39 66 -1
39 69 -1
39 77 1
39 80 1
39 82 1
39 83 1
39 86 -1
39 89 1
39 90 1
39 92 -1
39 98 -1
39 100 -1
39 107 1
39 114 -1
39 116 -1
39 119 -1
39 122 -1
39 127 1
39 129 -1
39 137 1
39 139 -1
39 140 1
39 141 1
39 142 -1
39 143 -1
39 148 -1
40 42 1
40 47 1
40 53 1
40 56 1
40 59 1
40 63 -1
40 67 -1
40 69 1
40 81 -1
40 84 -1
40 88 -1
40 89 1
40 96 1
40 99 -1
40 103 -1
40 106 -1
40 108 1
40 109 -1
40 117 -1
40 118 -1
40 120 -1
40 122 1
40 133 1
40 137 -1
40 139 1
40 142 -1
40 147 -1
40 149 1
41 47 -1
41 50 -1
41 60 -1
41 65 -1
41 67 1
41 80 -1
41 87 -1
41 101 1
41 102 -1
41 103 -1
41 114 1
41 119 1
41 120 -1
41 125 1
41 127 -1
41 131 1
41 134 -1
41 136 1
41 144 1
41 148 1
41 149 -1
41 150 -1
42 43 1
42 46 -1
42 51 1
42 58 1
42 59 1
42 72 1
42 73 -1
42 74 1
42 76 1
42 78 1
42 83 1
42 91 -1
42 94 1
42 97 -1
42 99 1
42 101 1
42 117 -1
42 119 -1
42 123 1
42 126 -1
42 130 -1
42 132 -1
42 138 1
43 44 1
43 47 -1
43 54 1
43 59 1
43 63 -1
43 65 -1
43 68 1
43 69 -1
43 73 -1
43 75 1
43 81 -1
43 85 -1
43 91 -1
43 95 -1
43 98 -1
43 99 -1
43 101 1
43 102 1
43 103 -1
43 105 -1
43 107 1
43 109 1
43 112 -1
43 113 -1
43 116 1
43 119 -1
43 125 -1
43 126 -1
43 127 -1
43 128 -1
43 135 -1
43 140 -1
43 142 -1
43 144 -1
43 147 -1
44 47 1
44 49 -1
44 51 1
44 53 -1
44 55 1
44 60 -1
44 62 -1
44 77 -1
44 81 1
44 88 1
44 92 1
44 97 1
44 107 -1
44 116 1
44 119 -1
44 121 -1
44 122 -1
44 123 -1
44 133 -1
44 135 -1
44 140 -1
44 143 1
44 144 -1
44 147 -1
45 47 1
45 53 1
45 71 1
45 72 -1
45 73 1
45 79 1
45 80 1
45 83 -1
45 88 -1
45 95 1
45 97 1
45 100 -1
45 110 -1
45 113 -1
45 120 -1
45 121 1
45 123 1
45 125 1
45 126 -1
45 134 1
45 139 1
45 142 -1
45 146 1
45 150 1
46 47 1
46 56 -1
46 64 -1
46 68 1
46 76 -1
46 80 1
46 81 1
46 83 -1
46 86 -1
46 87 -1
46 92 -1
46 95 -1
46 100 1
46 101 1
46 103 1
46 105 -1
46 109 -1
46 111 -1
46 113 -1
46 114 1
46 119 1
46 120 -1
46 122 1
46 123 -1
46 129 -1
46 130 1
46 138 -1
46 146 -1
47 49 1
47 51 -1
47 57 -1
47 58 -1
47 61 1
47 63 1
47 72 1
47 75 -1
47 77 -1
47 81 -1
47 86 -1
47 90 1
47 93 -1
47 108 -1
47 110 1
47 111 1
47 112 -1
47 116 1
47 117 1
47 120 1
47 131 1
47 133 -1
47 135 -1
47 140 -1
47 143 1
47 144 -1
47 145 1
47 147 -1
48 54 -1
48 59 1
48 61 1
48 62 -1
48 64 -1
48 68 1
48 70 -1
48 71 -1
48 75 -1
48 76 1
48 78 1
48 79 -1
48 81 -1
48 85 1
48 88 -1
48 90 -1
48 96 1
48 100 1
48 101 1
48 102 -1
48 112 1
48 114 1
48 116 1
48 129 1
48 130 -1
48 134 1
48 140 -1
48 143 -1
48 148 1
49 52 1
49 53 -1
49 55 1
49 56 1
49 57 -1
49 63 -1
49 70 -1
49 71 1
49 82 1
49 84 -1
49 87 1
49 89 -1
49 94 -1
49 97 1
49 99 1
49 100 -1
49 101 1
49 107 -1
49 111 -1
49 113 1
49 117 1
49 118 -1
49 123 -1
49 126 -1
49 128 1
49 130 1
49 137 1
49 147 -1
49 149 -1
50 51 -1
50 59 -1
50 60 -1
50 63 -1
50 64 -1
50 66 1
50 69 -1
50 70 1
50 71 1
50 73 1
50 75 1
50 80 -1
50 81 1
50 82 1
50 84 1
50 91 1
50 96 1
50 97 -1
50 98 -1
50 99 1
50 102 -1
50 103 -1
50 109 1
50 114 1
50 116 1
50 120 -1
50 121 1
50 126 1
50 132 -1
50 137 -1
50 141 -1
50 143 -1
50 144 1
50 147 1
50 148 -1
50 149 -1
50 150 -1
51 52 1
51 55 1
51 64 -1
51 76 1
51 87 -1
51 93 -1
51 94 1
51 95 -1
51 98 1
51 99 1
51 104 -1
51 115 -1
51 117 1
51 118 -1
51 121 -1
51 122 1
51 125 1
51 129 -1
51 139 1
51 141 -1
51 149 -1
52 53 -1
52 55 -1
52 56 1
52 64 -1
52 70 1
52 71 -1
52 72 -1
52 73 -1
52 74 -1
52 76 -1
52 82 -1
52 87 1
52 94 -1
52 98 -1
52 99 1
52 103 1
52 105 -1
52 107 1
52 117 -1
52 120 -1
52 126 -1
52 129 -1
52 132 -1
52 135 -1
52 139 1
52 140 -1
52 143 -1
52 144 1
52 146 1
52 147 -1
52 150 -1
53 55 1
53 59 1
53 62 -1
53 63 -1
53 65 1
53 72 -1
53 73 -1
53 78 1
53 79 -1
53 88 1
53 90 1
53 95 -1
53 98 1
53 100 1
53 105 -1
53 115 1
53 122 1
53 123 1
53 128 1
53 129 -1
53 132 -1
53 136 -1
53 147 -1
54 55 -1
54 56 -1
54 57 1
54 59 -1
54 62 -1
54 64 1
54 66 1
54 68 -1
54 74 -1
54 76 -1
54 77 1
54 79 1
54 80 1
54 82 -1
54 86 -1
54 88 1
54 90 1
54 91 -1
54 92 -1
54 103 1
54 114 1
54 117 1
54 123 -1
54 130 1
54 136 -1
54 140 1
54 146 -1
54 149 1
55 60 -1
55 63 1
55 68 1
55 73 1
55 81 -1
55 88 1
55 98 -1
55 99 1
55 102 1
55 105 1
55 109 -1
55 111 -1
55 112 -1
55 118 1
55 120 -1
55 122 1
55 124 1
55 125 -1
55 131 -1
55 139 -1
55 147 1
56 57 -1
56 60 1
56 61 1
56 69 1
56 70 1
56 76 1
56 77 -1
56 85 1
56 93 1
56 95 1
56 96 1
56 98 1
56 99 -1
56 100 -1
56 101 1
56 104 -1
56 109 -1
56 116 -1
56 118 -1
56 119 -1
56 124 1
56 126 -1
56 129 -1
56 130 -1
56 131 -1
56 147 1
56 148 -1
57 58 -1
57 60 1
57 66 1
57 69 1
57 72 -1
57 73 -1
57 76 1
57 77 -1
57 82 1
57 84 1
57 85 -1
57 87 -1
57 88 -1
57 94 1
57 95 -1
57 96 1
57 101 -1
57 109 -1
57 115 -1
57 116 1
57 119 -1
57 123 -1
57 133 1
57 137 1
57 138 -1
57 139 1
57 142 1
57 143 -1
57 144 1
57 145 1
57 149 1
58 60 -1
58 62 -1
58 64 1
58 67 -1
58 70 1
58 74 1
58 78 -1
58 90 1
58 91 -1
58 101 1
58 111 1
58 123 -1
58 125 -1
58 126 -1
58 131 1
58 136 1
58 139 1
58 147 -1
58 148 -1
59 61 -1
59 67 -1
59 68 -1
59 72 -1
59 85 -1
59 89 -1
59 94 1
59 96 1
59 102 -1
59 103 1
59 124 1
59 126 -1
59 130 -1
59 133 1
59 140 -1
59 142 -1
59 143 -1
59 144 1
59 146 1
59 147 1
59 149 -1
60 64 1
60 74 -1
60 79 1
60 83 1
60 85 -1
60 90 1
60 91 -1
60 92 -1
60 95 1
60 99 -1
60 100 1
60 101 -1
60 108 1
60 110 -1
60 112 1
60 113 -1
60 114 -1
60 116 1
60 118 1
60 119 1
60 125 1
60 126 1
60 129 -1
60 133 1
60 136 1
60 140 -1
60 141 1
61 66 1
61 68 -1
61 69 -1
61 70 1
61 75 1
61 78 -1
61 80 -1
61 81 -1
61 84 1
61 92 1
61 93 -1
61 98 -1
61 99 1
61 100 1
61 102 -1
61 103 1
61 110 -1
61 111 -1
61 114 1
61 123 1
61 126 -1
61 128 -1
61 129 -1
61 136 -1
61 150 -1
62 65 1
62 81 -1
62 82 -1
62 85 -1
62 88 1
62 104 -1
62 108 -1
62 117 -1
62 128 1
62 129 1
62 131 1
62 134 -1
62 140 1
62 141 -1
62 142 -1
62 145 1
62 150 1
63 65 -1
63 77 -1
63 87 -1
63 98 1
63 101 1
63 109 -1
63 118 -1
63 120 1
63 122 1
63 126 1
63 127 -1
63 136 1
63 140 -1
64 67 1
64 70 -1
64 74 1
64 79 -1
64 86 -1
64 87 -1
64 88 1
64 91 1
64 92 -1
64 96 1
64 99 -1
64 100 1
64 102 1
64 103 -1
64 114 1
64 115 -1
64 119 -1
64 121 -1
64 125 1
64 126 1
64 130 1
64 134 -1
64 135 -1
64 136 1
64 138 1
64 147 1
64 150 1
65 68 -1
65 72 1
65 73 -1
65 74 -1
65 84 -1
65 103 1
65 109 1
65 111 -1
65 112 -1
65 116 1
65 118 -1
65 130 1
65 132 -1
65 136 -1
65 148 -1
65 150 -1
66 67 -1
66 80 -1
66 84 1
66 88 1
66 89 -1
66 94 1
66 96 -1
66 102 -1
66 104 -1
66 106 -1
66 111 -1
66 112 1
66 120 1
66 124 1
66 125 1
66 126 -1
66 127 -1
66 131 1
66 141 -1
66 146 -1
66 149 1
67 75 -1
67 78 1
67 82 -1
67 84 1
67 85 1
67 94 -1
67 95 1
67 98 1
67 100 -1
67 101 1
67 103 1
67 104 -1
67 106 -1
67 114 1
67 116 1
67 118 1
67 120 -1
67 121 1
67 124 -1
67 126 -1
67 129 -1
67 132 -1
67 134 1
67 137 -1
67 143 1
67 145 1
68 77 -1
68 79 1
68 80 -1
68 82 -1
68 87 1
68 99 1
68 100 -1
68 105 1
68 107 1
68 121 -1
68 123 -1
68 124 -1
68 125 1
68 130 1
68 134 -1
68 137 -1
68 142 -1
68 149 -1
69 71 1
69 74 1
69 75 1
69 76 -1
69 78 1
69 84 -1
69 87 1
69 88 1
69 89 1
69 90 1
69 91 -1
69 102 1
69 105 1
69 109 -1
69 113 -1
69 116 -1
69 125 -1
69 127 -1
69 132 -1
69 140 -1
69 149 1
70 72 1
70 73 1
70 79 1
70 80 -1
70 81 -1
70 87 1
70 91 -1
70 93 1
70 98 -1
70 99 1
70 101 1
70 102 1
70 114 1
70 117 1
70 133 -1
70 141 1
70 142 1
70 143 1
71 81 1
71 83 1
71 93 -1
71 94 1
71 100 -1
71 101 -1
71 109 1
71 114 1
71 123 1
72 73 -1
72 75 -1
72 76 -1
72 78 1
72 82 -1
72 90 -1
72 95 -1
72 97 -1
72 99 -1
72 106 -1
72 109 -1
72 116 1
72 118 -1
72 130 1
72 132 -1
72 134 -1
72 136 1
72 137 1
72 142 -1
72 150 -1
73 75 1
73 76 -1
73 77 -1
73 78 -1
73 80 -1
73 83 1
73 86 -1
73 94 -1
73 96 1
73 97 -1
73 102 1
73 104 -1
73 118 -1
73 126 -1
73 129 -1
73 136 -1
73 142 1
73 144 1
73 145 -1
74 78 -1
74 89 -1
74 95 -1
74 101 -1
74 109 1
74 110 1
74 113 -1
74 126 1
74 127 -1
74 131 1
74 132 -1
74 133 1
74 139 1
74 145 -1
75 83 1
75 84 1
75 86 1
75 89 1
75 94 -1
75 95 1
75 96 -1
75 99 -1
75 110 1
75 112 -1
75 114 -1
75 120 -1
75 127 1
75 130 1
75 132 -1
75 145 -1
75 147 -1
75 148 1
76 77 1
76 79 1
76 81 -1
76 90 -1
76 92 1
76 95 1
76 96 -1
76 98 1
76 101 1
76 105 1
76 106 -1
76 113 1
76 119 1
76 123 1
76 127 1
76 128 -1
76 142 -1
76 146 -1
76 147 1
77 78 1
77 84 1
77 89 -1
77 102 -1
77 104 1
77 115 -1
77 117 -1
77 119 1
77 121 1
77 126 1
77 127 -1
77 128 1
77 130 1
77 131 1
77 134 -1
77 137 1
77 138 -1
77 141 -1
77 143 1
77 145 1
78 86 -1
78 91 1
78 93 -1
78 97 1
78 98 -1
78 101 -1
78 103 1
78 104 1
78 105 1
78 109 1
78 117 -1
78 119 1
78 124 1
78 132 1
78 134 1
78 136 -1
78 140 -1
78 143 1
78 144 1
79 82 1
79 87 1
79 92 1
79 96 1
79 97 -1
79 100 1
79 102 -1
79 106 1
79 107 -1
79 110 -1
79 114 -1
79 115 -1
79 116 1
79 118 1
79 121 -1
79 125 1
79 131 1
79 136 1
79 141 -1
79 142 -1
79 143 -1
79 145 -1
80 82 -1
80 83 1
80 86 -1
80 89 1
80 92 1
80 93 -1
80 97 -1
80 99 1
80 101 -1
80 103 -1
80 111 1
80 114 -1
80 116 1
80 126 -1
80 131 1
80 139 -1
80 142 1
80 147 -1
81 84 1
81 88 -1
81 91 -1
81 98 1
81 101 -1
81 102 -1
81 107 -1
81 115 1
81 118 1
81 128 1
81 132 -1
81 133 -1
81 134 -1
81 136 1
81 137 1
81 139 1
81 145 1
81 148 1
81 149 1
82 83 1
82 86 1
82 88 1
82 90 1
82 96 1
82 97 1
82 99 -1
82 100 -1
82 105 -1
82 106 -1
82 111 1
82 112 1
82 115 1
82 116 -1
82 120 -1
82 123 -1
82 126 -1
82 129 -1
82 133 -1
82 142 1
82 143 -1
82 144 -1
82 145 -1
82 146 -1
82 150 -1
83 94 -1
83 105 -1
83 108 1
83 110 -1
83 113 1
83 119 -1
83 123 1
83 126 1
83 127 -1
83 128 -1
83 132 1
83 135 -1
83 139 -1
83 140 1
84 89 -1
84 90 1
84 91 -1
84 100 1
84 107 -1
84 109 1
84 112 1
84 113 -1
84 119 -1
84 121 1
84 124 -1
84 127 -1
84 130 -1
84 131 -1
84 132 1
84 137 -1
84 139 -1
84 140 1
84 144 1
84 145 1
84 147 1
85 87 1
85 92 1
85 100 1
85 104 1
85 111 -1
85 117 -1
85 118 1
85 120 -1
85 123 -1
85 125 1
85 130 -1
85 131 -1
85 136 1
85 138 1
85 139 1
85 142 1
86 87 -1
86 93 1
86 105 -1
86 109 1
86 110 1
86 118 -1
86 120 1
86 124 -1
86 125 1
86 133 1
86 142 -1
86 145 1
87 90 -1
87 96 -1
87 97 -1
87 101 -1
87 106 1
87 107 1
87 108 -1
87 110 -1
87 113 -1
87 116 1
87 118 1
87 122 -1
87 123 1
87 124 -1
87 126 1
87 128 -1
87 132 1
87 134 -1
87 135 1
87 136 -1
87 138 1
87 145 -1
87 149 1
88 89 1
88 93 -1
88 94 -1
88 98 -1
88 100 -1
88 106 1
88 108 1
88 114 -1
88 119 -1
88 120 -1
88 121 -1
88 127 1
88 129 -1
88 135 -1
88 144 1
88 146 -1
88 147 -1
88 149 1
89 90 -1
89 92 1
89 96 1
89 105 1
89 110 1
89 118 -1
89 133 -1
89 141 1
89 148 -1
90 97 1
90 99 1
90 100 -1
90 103 1
90 104 -1
90 105 -1
90 110 1
90 112 -1
90 114 1
90 117 -1
90 129 -1
90 135 -1
90 138 1
90 140 1
90 141 1
90 143 -1
90 144 1
91 100 1
91 104 1
91 105 1
91 108 -1
91 110 1
91 115 1
91 120 1
91 121 1
91 125 1
91 136 -1
91 139 -1
91 144 1
91 146 1
92 93 -1
92 95 -1
92 97 -1
92 103 -1
92 107 1
92 108 -1
92 117 1
92 134 -1
92 137 -1
92 138 1
92 142 1
92 147 1
92 149 1
92 150 -1
93 94 1
93 97 -1
93 104 -1
93 106 1
93 107 1
93 111 1
93 113 -1
93 114 -1
93 118 1
93 119 1
93 122 1
93 124 1
93 128 1
93 130 -1
93 132 1
93 135 -1
93 140 1
93 145 1
93 147 -1
93 148 1
93 149 -1
94 96 -1
94 103 -1
94 108 -1
94 115 1
94 119 1
94 124 1
94 125 -1
94 129 -1
94 131 -1
94 132 1
94 134 1
94 135 1
94 143 1
94 148 -1
95 98 1
95 99 -1
95 105 1
95 107 1
95 108 -1
95 112 1
95 113 -1
95 120 1
95 124 -1
95 127 1
95 128 1
95 129 1
95 132 -1
95 135 1
95 140 1
95 148 1
95 150 -1
96 98 -1
96 101 -1
96 107 1
96 110 1
96 111 -1
96 122 -1
96 129 -1
96 133 -1
97 99 1
97 101 -1
97 106 1
97 108 1
97 110 1
97 113 1
97 119 -1
97 135 -1
97 145 1
97 148 1
98 107 -1
98 108 -1
98 110 -1
98 111 1
98 122 -1
98 130 -1
98 131 -1
98 142 1
98 148 1
99 101 1
99 103 1
99 104 1
99 106 -1
99 109 -1
99 113 1
99 121 1
99 124 1
99 125 1
99 126 1
99 127 -1
99 130 -1
99 135 -1
99 136 -1
99 139 -1
99 147 1
99 149 1
100 105 1
100 106 1
100 107 1
100 109 -1
100 111 -1
100 117 1
100 119 1
100 122 1
100 128 -1
100 136 1
100 138 -1
100 140 -1
100 144 -1
100 147 1
100 148 1
101 102 1
101 103 1
101 104 1
101 107 1
101 108 1
101 111 1
101 118 1
101 120 -1
101 121 1
101 123 -1
101 126 1
101 127 1
101 128 -1
101 136 1
101 137 1
101 140 1
101 142 1
102 105 1
102 108 1
102 111 1
102 114 1
102 117 1
102 119 1
102 132 1
102 135 1
102 140 1
102 143 1
102 145 -1
103 107 -1
103 112 1
103 113 -1
103 114 1
103 121 -1
103 122 1
103 127 -1
103 129 1
103 134 1
103 135 1
103 136 -1
103 137 -1
103 143 1
103 145 -1
103 147 -1
104 110 1
104 111 1
104 113 1
104 116 1
104 118 -1
104 120 -1
104 122 -1
104 125 1
104 126 1
104 129 -1
104 131 1
104 133 -1
104 143 -1
104 145 -1
105 111 1
105 132 -1
105 145 1
105 147 1
105 149 1
106 113 1
106 118 -1
106 124 1
106 125 1
106 128 -1
106 133 1
106 137 -1
106 138 1
106 141 -1
106 142 -1
106 144 -1
106 149 -1
107 112 1
107 117 1
107 121 1
107 124 -1
107 127 -1
107 129 -1
107 133 -1
107 137 -1
107 139 -1
107 143 -1
107 149 -1
108 109 -1
108 113 1
108 119 1
108 121 -1
108 124 1
108 125 -1
108 126 -1
108 132 1
108 142 1
108 145 -1
108 146 1
109 115 -1
109 116 1
109 118 -1
109 120 -1
109 129 1
109 133 -1
109 137 -1
109 142 1
109 144 1
109 150 -1
110 112 -1
110 114 1
110 116 1
110 125 -1
110 127 -1
110 137 -1
110 138 1
110 141 -1
110 142 -1
110 147 -1
110 149 1
111 112 -1
111 120 -1
111 121 -1
111 130 1
111 137 -1
111 139 1
111 140 -1
111 141 1
111 145 -1
111 146 1
111 149 -1
111 150 -1
112 115 -1
112 116 -1
112 127 -1
112 138 1
112 142 -1
112 144 -1
113 135 1
113 142 -1
114 117 -1
114 121 1
114 122 1
114 129 -1
114 130 1
114 132 -1
114 133 1
114 134 -1
114 135 -1
114 138 1
114 139 -1
114 140 -1
114 145 1
115 120 -1
115 123 1
115 126 -1
115 141 1
115 144 -1
115 149 -1
115 150 -1
116 117 1
116 128 1
116 132 1
116 137 -1
116 139 -1
116 141 1
116 143 1
116 147 -1
116 148 -1
117 118 -1
117 122 -1
117 129 -1
117 137 1
117 139 -1
117 141 -1
117 142 1
117 146 1
117 150 1
118 121 -1
118 124 1
118 126 -1
118 127 1
118 134 1
118 136 1
118 143 1
118 146 1
118 147 -1
118 149 -1
119 122 -1
119 131 1
119 132 1
119 134 -1
119 135 -1
119 140 1
119 144 -1
119 148 1
120 124 -1
120 125 1
120 135 -1
120 136 -1
120 137 -1
120 139 -1
120 140 1
120 141 1
121 123 -1
121 125 -1
121 137 -1
121 138 1
121 142 1
121 143 -1
121 146 1
122 123 1
122 127 -1
122 130 1
122 132 -1
122 135 1
122 138 1
122 145 1
122 147 -1
122 150 1
123 125 1
123 137 -1
123 142 1
123 143 -1
123 144 -1
123 146 1
123 147 1
124 129 1
124 133 -1
124 134 -1
124 135 -1
124 136 -1
124 139 -1
124 145 -1
124 150 1
125 132 -1
125 134 1
125 136 -1
125 141 -1
125 144 1
125 145 -1
125 150 -1
126 129 -1
126 133 1
126 141 1
126 149 -1
127 128 -1
127 130 1
127 134 -1
127 135 -1
127 140 1
127 142 1
127 143 -1
128 129 -1
128 130 1
128 137 -1
129 131 -1
129 134 -1
129 141 -1
129 142 -1
129 143 -1
129 144 1
129 147 1
130 132 -1
130 137 1
130 141 -1
130 145 -1
130 147 1
130 150 1
131 135 -1
131 138 1
131 141 1
131 144 1
131 145 -1
131 150 -1
132 138 1
132 144 1
132 147 -1
133 135 -1
133 142 -1
133 145 -1
133 147 -1
134 141 1
134 142 1
134 144 1
134 147 1
135 138 1
135 140 -1
136 138 1
136 141 1
136 145 1
137 140 -1
137 145 -1
137 147 -1
137 149 1
138 139 -1
138 140 1
138 143 -1
139 150 1
140 147 -1
140 148 1
141 143 1
141 145 -1
141 148 1
142 143 1
142 144 -1
142 146 1
142 147 1
142 149 1
143 144 1
143 149 -1
144 149 1
145 147 1
145 150 -1
146 148 1
